N=30;
start=[|
0, 18, 10, 0, 7, 0, 9, 1, 17, 14, 24, 25, 13, 0, 0, 19, 0, 0, 28, 0, 5, 8, 0, 0, 23, 0, 0, 15, 26, 12|
0, 0, 23, 3, 14, 7, 0, 11, 0, 9, 10, 0, 0, 15, 25, 1, 0, 0, 26, 0, 8, 0, 27, 30, 12, 0, 22, 6, 21, 0|
0, 0, 25, 19, 2, 0, 0, 0, 21, 0, 30, 28, 15, 0, 1, 3, 0, 12, 8, 6, 14, 0, 0, 0, 20, 0, 27, 24, 17, 10|
15, 17, 3, 0, 16, 0, 22, 14, 0, 1, 0, 0, 26, 30, 0, 0, 21, 0, 6, 28, 0, 13, 0, 0, 25, 18, 29, 23, 2, 0|
5, 0, 30, 14, 15, 0, 21, 23, 24, 7, 6, 0, 8, 0, 28, 0, 3, 19, 0, 0, 0, 11, 0, 29, 0, 0, 0, 22, 16, 18|
0, 20, 27, 22, 0, 0, 6, 0, 16, 30, 29, 0, 2, 11, 0, 5, 0, 26, 1, 0, 12, 0, 17, 4, 13, 0, 0, 0, 0, 15|
12, 23, 4, 28, 0, 24, 0, 9, 0, 0, 13, 14, 0, 0, 17, 27, 0, 25, 0, 1, 0, 26, 0, 8, 0, 20, 10, 0, 11, 0|
26, 0, 22, 0, 13, 23, 15, 0, 7, 21, 0, 0, 19, 10, 0, 17, 0, 0, 30, 12, 4, 18, 20, 0, 1, 8, 0, 0, 0, 3|
0, 0, 0, 0, 0, 6, 5, 12, 0, 0, 0, 16, 0, 9, 10, 14, 20, 17, 23, 4, 0, 30, 7, 0, 11, 19, 3, 0, 25, 2|
11, 12, 0, 0, 0, 15, 0, 0, 4, 20, 0, 13, 5, 0, 0, 0, 1, 0, 17, 18, 2, 0, 0, 25, 26, 14, 24, 16, 6, 8|
24, 0, 17, 0, 25, 22, 23, 0, 0, 0, 1, 0, 0, 13, 0, 7, 6, 0, 21, 0, 16, 20, 3, 19, 0, 2, 28, 27, 0, 5|
7, 5, 26, 0, 0, 0, 19, 0, 0, 25, 28, 0, 24, 0, 15, 0, 0, 8, 20, 2, 6, 10, 18, 12, 4, 0, 0, 0, 23, 0|
0, 8, 16, 0, 0, 1, 0, 22, 18, 4, 0, 0, 0, 0, 29, 12, 2, 7, 0, 24, 0, 0, 10, 26, 0, 25, 13, 0, 28, 14|
0, 0, 14, 26, 0, 29, 16, 0, 12, 0, 0, 2, 0, 0, 30, 28, 27, 9, 15, 7, 24, 0, 23, 0, 0, 4, 8, 0, 0, 20|
0, 30, 24, 0, 21, 18, 14, 5, 22, 0, 17, 0, 28, 12, 19, 0, 7, 0, 0, 10, 0, 0, 9, 0, 27, 16, 0, 11, 0, 0|
28, 29, 0, 0, 5, 0, 0, 2, 30, 0, 0, 12, 25, 14, 0, 4, 16, 20, 24, 27, 0, 0, 21, 0, 0, 13, 19, 0, 0, 23|
0, 26, 0, 30, 11, 0, 0, 0, 20, 8, 0, 1, 0, 29, 2, 0, 10, 24, 0, 9, 28, 19, 0, 18, 21, 3, 0, 0, 13, 4|
6, 0, 9, 16, 4, 30, 13, 15, 0, 18, 11, 27, 23, 0, 26, 24, 0, 0, 0, 0, 0, 21, 0, 5, 0, 0, 20, 0, 3, 22|
30, 14, 0, 10, 22, 0, 0, 24, 13, 0, 0, 0, 29, 18, 4, 0, 9, 5, 0, 0, 17, 0, 0, 23, 0, 0, 15, 8, 27, 7|
3, 13, 20, 21, 0, 0, 30, 8, 15, 22, 7, 0, 18, 5, 0, 0, 17, 10, 16, 0, 0, 14, 11, 0, 0, 28, 0, 0, 24, 0|
21, 0, 6, 0, 12, 10, 0, 20, 0, 2, 8, 11, 0, 0, 22, 0, 0, 0, 0, 3, 1, 9, 26, 27, 7, 0, 0, 0, 29, 19|
0, 0, 0, 1, 30, 19, 10, 17, 27, 24, 3, 0, 0, 26, 0, 0, 25, 23, 9, 14, 0, 15, 2, 0, 0, 0, 16, 28, 0, 0|
13, 0, 0, 0, 28, 4, 0, 0, 0, 3, 25, 8, 1, 0, 9, 0, 0, 21, 0, 23, 27, 16, 15, 20, 29, 12, 30, 0, 0, 6|
0, 11, 0, 5, 8, 14, 0, 3, 28, 0, 19, 7, 0, 24, 27, 18, 13, 0, 0, 0, 26, 29, 22, 21, 0, 0, 23, 25, 0, 0|
27, 0, 5, 4, 0, 8, 12, 0, 10, 0, 0, 30, 0, 19, 20, 9, 0, 22, 7, 11, 0, 0, 0, 2, 0, 21, 1, 17, 18, 0|
0, 2, 0, 11, 0, 5, 0, 0, 0, 26, 0, 10, 0, 0, 18, 6, 19, 15, 4, 8, 0, 28, 0, 3, 16, 9, 0, 29, 20, 0|
0, 28, 0, 13, 9, 0, 3, 27, 26, 15, 0, 23, 0, 25, 0, 0, 0, 4, 11, 0, 19, 5, 0, 6, 0, 30, 0, 10, 0, 21|
8, 0, 0, 0, 18, 28, 0, 6, 0, 0, 4, 0, 16, 23, 0, 22, 14, 0, 12, 0, 10, 0, 13, 9, 30, 7, 5, 19, 0, 0|
18, 4, 8, 27, 0, 13, 17, 0, 0, 19, 0, 26, 21, 28, 6, 0, 24, 0, 0, 0, 20, 25, 0, 0, 22, 10, 0, 12, 0, 0|
14, 25, 0, 2, 0, 0, 27, 0, 6, 0, 12, 24, 30, 22, 0, 10, 11, 0, 0, 29, 18, 0, 8, 0, 9, 0, 0, 4, 0, 26|];
